p cnf 47 678
-1 2 0
-1 -3 0
-1 4 0
-1 5 0
-1 -6 0
-1 7 0
-1 -8 0
-1 -9 0
-1 10 0
-1 11 0
-1 -12 0
-1 -13 0
-1 14 0
-1 -15 0
-1 -16 0
-1 17 0
-1 18 0
-1 19 0
-1 -20 0
-1 21 0
-1 -22 0
-1 23 0
-1 24 0
-1 25 0
-1 26 0
-1 27 0
-1 28 0
-1 -29 0
-1 -30 0
-1 -31 0
-1 32 0
-1 33 0
1 0
34 35 36 37 38 39 40 41 42 43 0
-34 2 -44 0
-34 -2 44 0
-34 3 -46 0
-34 -3 46 0
-34 4 -45 0
-34 -4 45 0
-34 5 -47 0
-34 -5 47 0
-34 6 -44 0
-34 -6 44 0
-34 7 -46 0
-34 -7 46 0
-34 8 -45 0
-34 -8 45 0
-34 9 -47 0
-34 -9 47 0
-34 10 -44 0
-34 -10 44 0
-34 11 -46 0
-34 -11 46 0
-34 12 -45 0
-34 -12 45 0
-34 13 -47 0
-34 -13 47 0
-34 14 -44 0
-34 -14 44 0
-34 15 -46 0
-34 -15 46 0
-34 16 -45 0
-34 -16 45 0
-34 17 -47 0
-34 -17 47 0
-34 18 -44 0
-34 -18 44 0
-34 19 -46 0
-34 -19 46 0
-34 20 -45 0
-34 -20 45 0
-34 21 -47 0
-34 -21 47 0
-34 22 -44 0
-34 -22 44 0
-34 23 -46 0
-34 -23 46 0
-34 24 -45 0
-34 -24 45 0
-34 25 -47 0
-34 -25 47 0
-34 26 -44 0
-34 -26 44 0
-34 27 -46 0
-34 -27 46 0
-34 28 -45 0
-34 -28 45 0
-34 29 -47 0
-34 -29 47 0
-34 30 -44 0
-34 -30 44 0
-34 31 -46 0
-34 -31 46 0
-34 32 -45 0
-34 -32 45 0
-34 33 -47 0
-34 -33 47 0
-35 2 -44 0
-35 -2 44 0
-35 3 -46 0
-35 -3 46 0
-35 4 -44 0
-35 -4 44 0
-35 5 -46 0
-35 -5 46 0
-35 6 -45 0
-35 -6 45 0
-35 7 -47 0
-35 -7 47 0
-35 8 -45 0
-35 -8 45 0
-35 9 -47 0
-35 -9 47 0
-35 10 -44 0
-35 -10 44 0
-35 11 -46 0
-35 -11 46 0
-35 12 -44 0
-35 -12 44 0
-35 13 -46 0
-35 -13 46 0
-35 14 -45 0
-35 -14 45 0
-35 15 -47 0
-35 -15 47 0
-35 16 -45 0
-35 -16 45 0
-35 17 -47 0
-35 -17 47 0
-35 18 -44 0
-35 -18 44 0
-35 19 -46 0
-35 -19 46 0
-35 20 -44 0
-35 -20 44 0
-35 21 -46 0
-35 -21 46 0
-35 22 -45 0
-35 -22 45 0
-35 23 -47 0
-35 -23 47 0
-35 24 -45 0
-35 -24 45 0
-35 25 -47 0
-35 -25 47 0
-35 26 -44 0
-35 -26 44 0
-35 27 -46 0
-35 -27 46 0
-35 28 -44 0
-35 -28 44 0
-35 29 -46 0
-35 -29 46 0
-35 30 -45 0
-35 -30 45 0
-35 31 -47 0
-35 -31 47 0
-35 32 -45 0
-35 -32 45 0
-35 33 -47 0
-35 -33 47 0
-36 2 -44 0
-36 -2 44 0
-36 3 -44 0
-36 -3 44 0
-36 4 -46 0
-36 -4 46 0
-36 5 -46 0
-36 -5 46 0
-36 6 -45 0
-36 -6 45 0
-36 7 -45 0
-36 -7 45 0
-36 8 -47 0
-36 -8 47 0
-36 9 -47 0
-36 -9 47 0
-36 10 -44 0
-36 -10 44 0
-36 11 -44 0
-36 -11 44 0
-36 12 -46 0
-36 -12 46 0
-36 13 -46 0
-36 -13 46 0
-36 14 -45 0
-36 -14 45 0
-36 15 -45 0
-36 -15 45 0
-36 16 -47 0
-36 -16 47 0
-36 17 -47 0
-36 -17 47 0
-36 18 -44 0
-36 -18 44 0
-36 19 -44 0
-36 -19 44 0
-36 20 -46 0
-36 -20 46 0
-36 21 -46 0
-36 -21 46 0
-36 22 -45 0
-36 -22 45 0
-36 23 -45 0
-36 -23 45 0
-36 24 -47 0
-36 -24 47 0
-36 25 -47 0
-36 -25 47 0
-36 26 -44 0
-36 -26 44 0
-36 27 -44 0
-36 -27 44 0
-36 28 -46 0
-36 -28 46 0
-36 29 -46 0
-36 -29 46 0
-36 30 -45 0
-36 -30 45 0
-36 31 -45 0
-36 -31 45 0
-36 32 -47 0
-36 -32 47 0
-36 33 -47 0
-36 -33 47 0
-37 2 -44 0
-37 -2 44 0
-37 3 -46 0
-37 -3 46 0
-37 4 -44 0
-37 -4 44 0
-37 5 -46 0
-37 -5 46 0
-37 6 -44 0
-37 -6 44 0
-37 7 -46 0
-37 -7 46 0
-37 8 -44 0
-37 -8 44 0
-37 9 -46 0
-37 -9 46 0
-37 10 -45 0
-37 -10 45 0
-37 11 -47 0
-37 -11 47 0
-37 12 -45 0
-37 -12 45 0
-37 13 -47 0
-37 -13 47 0
-37 14 -45 0
-37 -14 45 0
-37 15 -47 0
-37 -15 47 0
-37 16 -45 0
-37 -16 45 0
-37 17 -47 0
-37 -17 47 0
-37 18 -44 0
-37 -18 44 0
-37 19 -46 0
-37 -19 46 0
-37 20 -44 0
-37 -20 44 0
-37 21 -46 0
-37 -21 46 0
-37 22 -44 0
-37 -22 44 0
-37 23 -46 0
-37 -23 46 0
-37 24 -44 0
-37 -24 44 0
-37 25 -46 0
-37 -25 46 0
-37 26 -45 0
-37 -26 45 0
-37 27 -47 0
-37 -27 47 0
-37 28 -45 0
-37 -28 45 0
-37 29 -47 0
-37 -29 47 0
-37 30 -45 0
-37 -30 45 0
-37 31 -47 0
-37 -31 47 0
-37 32 -45 0
-37 -32 45 0
-37 33 -47 0
-37 -33 47 0
-38 2 -44 0
-38 -2 44 0
-38 3 -44 0
-38 -3 44 0
-38 4 -46 0
-38 -4 46 0
-38 5 -46 0
-38 -5 46 0
-38 6 -44 0
-38 -6 44 0
-38 7 -44 0
-38 -7 44 0
-38 8 -46 0
-38 -8 46 0
-38 9 -46 0
-38 -9 46 0
-38 10 -45 0
-38 -10 45 0
-38 11 -45 0
-38 -11 45 0
-38 12 -47 0
-38 -12 47 0
-38 13 -47 0
-38 -13 47 0
-38 14 -45 0
-38 -14 45 0
-38 15 -45 0
-38 -15 45 0
-38 16 -47 0
-38 -16 47 0
-38 17 -47 0
-38 -17 47 0
-38 18 -44 0
-38 -18 44 0
-38 19 -44 0
-38 -19 44 0
-38 20 -46 0
-38 -20 46 0
-38 21 -46 0
-38 -21 46 0
-38 22 -44 0
-38 -22 44 0
-38 23 -44 0
-38 -23 44 0
-38 24 -46 0
-38 -24 46 0
-38 25 -46 0
-38 -25 46 0
-38 26 -45 0
-38 -26 45 0
-38 27 -45 0
-38 -27 45 0
-38 28 -47 0
-38 -28 47 0
-38 29 -47 0
-38 -29 47 0
-38 30 -45 0
-38 -30 45 0
-38 31 -45 0
-38 -31 45 0
-38 32 -47 0
-38 -32 47 0
-38 33 -47 0
-38 -33 47 0
-39 2 -44 0
-39 -2 44 0
-39 3 -44 0
-39 -3 44 0
-39 4 -44 0
-39 -4 44 0
-39 5 -44 0
-39 -5 44 0
-39 6 -46 0
-39 -6 46 0
-39 7 -46 0
-39 -7 46 0
-39 8 -46 0
-39 -8 46 0
-39 9 -46 0
-39 -9 46 0
-39 10 -45 0
-39 -10 45 0
-39 11 -45 0
-39 -11 45 0
-39 12 -45 0
-39 -12 45 0
-39 13 -45 0
-39 -13 45 0
-39 14 -47 0
-39 -14 47 0
-39 15 -47 0
-39 -15 47 0
-39 16 -47 0
-39 -16 47 0
-39 17 -47 0
-39 -17 47 0
-39 18 -44 0
-39 -18 44 0
-39 19 -44 0
-39 -19 44 0
-39 20 -44 0
-39 -20 44 0
-39 21 -44 0
-39 -21 44 0
-39 22 -46 0
-39 -22 46 0
-39 23 -46 0
-39 -23 46 0
-39 24 -46 0
-39 -24 46 0
-39 25 -46 0
-39 -25 46 0
-39 26 -45 0
-39 -26 45 0
-39 27 -45 0
-39 -27 45 0
-39 28 -45 0
-39 -28 45 0
-39 29 -45 0
-39 -29 45 0
-39 30 -47 0
-39 -30 47 0
-39 31 -47 0
-39 -31 47 0
-39 32 -47 0
-39 -32 47 0
-39 33 -47 0
-39 -33 47 0
-40 2 -44 0
-40 -2 44 0
-40 3 -46 0
-40 -3 46 0
-40 4 -44 0
-40 -4 44 0
-40 5 -46 0
-40 -5 46 0
-40 6 -44 0
-40 -6 44 0
-40 7 -46 0
-40 -7 46 0
-40 8 -44 0
-40 -8 44 0
-40 9 -46 0
-40 -9 46 0
-40 10 -44 0
-40 -10 44 0
-40 11 -46 0
-40 -11 46 0
-40 12 -44 0
-40 -12 44 0
-40 13 -46 0
-40 -13 46 0
-40 14 -44 0
-40 -14 44 0
-40 15 -46 0
-40 -15 46 0
-40 16 -44 0
-40 -16 44 0
-40 17 -46 0
-40 -17 46 0
-40 18 -45 0
-40 -18 45 0
-40 19 -47 0
-40 -19 47 0
-40 20 -45 0
-40 -20 45 0
-40 21 -47 0
-40 -21 47 0
-40 22 -45 0
-40 -22 45 0
-40 23 -47 0
-40 -23 47 0
-40 24 -45 0
-40 -24 45 0
-40 25 -47 0
-40 -25 47 0
-40 26 -45 0
-40 -26 45 0
-40 27 -47 0
-40 -27 47 0
-40 28 -45 0
-40 -28 45 0
-40 29 -47 0
-40 -29 47 0
-40 30 -45 0
-40 -30 45 0
-40 31 -47 0
-40 -31 47 0
-40 32 -45 0
-40 -32 45 0
-40 33 -47 0
-40 -33 47 0
-41 2 -44 0
-41 -2 44 0
-41 3 -44 0
-41 -3 44 0
-41 4 -46 0
-41 -4 46 0
-41 5 -46 0
-41 -5 46 0
-41 6 -44 0
-41 -6 44 0
-41 7 -44 0
-41 -7 44 0
-41 8 -46 0
-41 -8 46 0
-41 9 -46 0
-41 -9 46 0
-41 10 -44 0
-41 -10 44 0
-41 11 -44 0
-41 -11 44 0
-41 12 -46 0
-41 -12 46 0
-41 13 -46 0
-41 -13 46 0
-41 14 -44 0
-41 -14 44 0
-41 15 -44 0
-41 -15 44 0
-41 16 -46 0
-41 -16 46 0
-41 17 -46 0
-41 -17 46 0
-41 18 -45 0
-41 -18 45 0
-41 19 -45 0
-41 -19 45 0
-41 20 -47 0
-41 -20 47 0
-41 21 -47 0
-41 -21 47 0
-41 22 -45 0
-41 -22 45 0
-41 23 -45 0
-41 -23 45 0
-41 24 -47 0
-41 -24 47 0
-41 25 -47 0
-41 -25 47 0
-41 26 -45 0
-41 -26 45 0
-41 27 -45 0
-41 -27 45 0
-41 28 -47 0
-41 -28 47 0
-41 29 -47 0
-41 -29 47 0
-41 30 -45 0
-41 -30 45 0
-41 31 -45 0
-41 -31 45 0
-41 32 -47 0
-41 -32 47 0
-41 33 -47 0
-41 -33 47 0
-42 2 -44 0
-42 -2 44 0
-42 3 -44 0
-42 -3 44 0
-42 4 -44 0
-42 -4 44 0
-42 5 -44 0
-42 -5 44 0
-42 6 -46 0
-42 -6 46 0
-42 7 -46 0
-42 -7 46 0
-42 8 -46 0
-42 -8 46 0
-42 9 -46 0
-42 -9 46 0
-42 10 -44 0
-42 -10 44 0
-42 11 -44 0
-42 -11 44 0
-42 12 -44 0
-42 -12 44 0
-42 13 -44 0
-42 -13 44 0
-42 14 -46 0
-42 -14 46 0
-42 15 -46 0
-42 -15 46 0
-42 16 -46 0
-42 -16 46 0
-42 17 -46 0
-42 -17 46 0
-42 18 -45 0
-42 -18 45 0
-42 19 -45 0
-42 -19 45 0
-42 20 -45 0
-42 -20 45 0
-42 21 -45 0
-42 -21 45 0
-42 22 -47 0
-42 -22 47 0
-42 23 -47 0
-42 -23 47 0
-42 24 -47 0
-42 -24 47 0
-42 25 -47 0
-42 -25 47 0
-42 26 -45 0
-42 -26 45 0
-42 27 -45 0
-42 -27 45 0
-42 28 -45 0
-42 -28 45 0
-42 29 -45 0
-42 -29 45 0
-42 30 -47 0
-42 -30 47 0
-42 31 -47 0
-42 -31 47 0
-42 32 -47 0
-42 -32 47 0
-42 33 -47 0
-42 -33 47 0
-43 2 -44 0
-43 -2 44 0
-43 3 -44 0
-43 -3 44 0
-43 4 -44 0
-43 -4 44 0
-43 5 -44 0
-43 -5 44 0
-43 6 -44 0
-43 -6 44 0
-43 7 -44 0
-43 -7 44 0
-43 8 -44 0
-43 -8 44 0
-43 9 -44 0
-43 -9 44 0
-43 10 -46 0
-43 -10 46 0
-43 11 -46 0
-43 -11 46 0
-43 12 -46 0
-43 -12 46 0
-43 13 -46 0
-43 -13 46 0
-43 14 -46 0
-43 -14 46 0
-43 15 -46 0
-43 -15 46 0
-43 16 -46 0
-43 -16 46 0
-43 17 -46 0
-43 -17 46 0
-43 18 -45 0
-43 -18 45 0
-43 19 -45 0
-43 -19 45 0
-43 20 -45 0
-43 -20 45 0
-43 21 -45 0
-43 -21 45 0
-43 22 -45 0
-43 -22 45 0
-43 23 -45 0
-43 -23 45 0
-43 24 -45 0
-43 -24 45 0
-43 25 -45 0
-43 -25 45 0
-43 26 -47 0
-43 -26 47 0
-43 27 -47 0
-43 -27 47 0
-43 28 -47 0
-43 -28 47 0
-43 29 -47 0
-43 -29 47 0
-43 30 -47 0
-43 -30 47 0
-43 31 -47 0
-43 -31 47 0
-43 32 -47 0
-43 -32 47 0
-43 33 -47 0
-43 -33 47 0
45 46 47 0
45 -46 -47 0
-45 46 -47 0
1 0
